NAME: tsp5_19
COMMENT: 5-tsp problem (Padberg/Rinaldi)
TYPE: TSP
DIMENSION: 5
EDGE_WEIGHT_TYPE : EUC_2D
NODE_COORD_SECTION
1.00 25.65 20.42
2.00 5.01 33.47
3.00 39.67 0.54
4.00 35.11 21.13
5.00 11.60 21.69
